Route #1: 1 24 15 44 7 27 14 46 39
Route #2: 1 10 18 29 37 6 33 4 23 40 34 9
Route #3: 1 5 31 3 38 11
Route #4: 1 22 30 32 35 41 2 28 21 42
Route #5: 1 20 16 17 25 43 12
Route #6: 1 13 36 45 26 19
Route #7: 1 8
cost 1093
